c ind 10 13 143 15 16 25 28 39 41 43 0
c ind 45 5 53 6 9 0
p cnf 143 568
-1 -2 11 0
-1 2 142 0
-100 -32 101 0
-100 32 60 0
-101 -35 16 0
-101 35 102 0
-102 -47 51 0
-102 47 103 0
-103 -55 91 0
-103 55 104 0
-104 -60 16 0
-104 60 105 0
-105 -64 16 0
-105 64 106 0
-106 -68 16 0
-106 68 107 0
-107 -71 51 0
-107 71 60 0
-108 -109 119 0
-108 109 120 0
-109 -22 110 0
-109 22 64 0
-11 -12 14 0
-11 12 17 0
-110 -30 16 0
-110 30 111 0
-111 -32 112 0
-111 32 64 0
-112 -35 16 0
-112 35 113 0
-113 -47 51 0
-113 47 114 0
-114 -55 51 0
-114 55 115 0
-115 -60 13 0
-115 60 116 0
-116 -64 16 0
-116 64 117 0
-117 -68 16 0
-117 68 118 0
-118 -71 91 0
-118 71 64 0
-119 -13 15 0
-119 -15 13 0
-12 -13 9 0
-12 -9 13 0
-120 -121 14 0
-120 121 131 0
-121 -22 122 0
-121 22 68 0
-122 -30 16 0
-122 30 123 0
-123 -32 124 0
-123 32 68 0
-124 -35 16 0
-124 35 125 0
-125 -47 73 0
-125 47 126 0
-126 -55 51 0
-126 55 127 0
-127 -60 16 0
-127 60 128 0
-128 -64 16 0
-128 64 129 0
-129 -68 16 0
-129 68 130 0
-130 -71 51 0
-130 71 68 0
-131 -132 14 0
-131 132 142 0
-132 -22 133 0
-132 22 71 0
-133 -30 16 0
-133 30 134 0
-134 -32 135 0
-134 32 71 0
-135 -35 16 0
-135 35 136 0
-136 -47 51 0
-136 47 137 0
-137 -55 73 0
-137 55 138 0
-138 -60 16 0
-138 60 139 0
-139 -64 16 0
-139 64 140 0
-14 -15 16 0
-14 -16 15 0
-140 -68 13 0
-140 68 141 0
-141 -71 51 0
-141 71 71 0
-142 -143 15 0
-142 -15 143 0
-16 0
-17 -18 20 0
-17 18 142 0
-18 19 0
-18 3 0
-19 -13 5 0
-19 -5 13 0
-2 3 7 0
-20 -21 14 0
-20 21 74 0
-21 -22 29 0
-21 22 35 0
-22 23 26 0
-23 -24 0
-24 -25 6 0
-24 -6 25 0
-26 -27 0
-27 -10 28 0
-27 -28 10 0
-29 -30 13 0
-29 30 31 0
-3 -4 0
-30 -10 13 0
-30 -13 10 0
-31 -32 34 0
-31 32 35 0
-32 23 0
-32 33 0
-33 -13 6 0
-33 -6 13 0
-34 -35 16 0
-34 35 46 0
-35 36 0
-35 44 0
-36 37 0
-36 42 0
-37 38 0
-37 40 0
-38 -16 39 0
-38 -39 16 0
-4 -5 6 0
-4 -6 5 0
-40 -16 41 0
-40 -41 16 0
-42 -16 43 0
-42 -43 16 0
-44 -16 45 0
-44 -45 16 0
-46 -47 51 0
-46 47 54 0
-47 44 0
-47 48 0
-48 42 0
-48 49 0
-49 40 0
-49 50 0
-50 -13 39 0
-50 -39 13 0
-51 -52 16 0
-51 52 16 0
-52 -16 53 0
-52 -53 16 0
-54 -55 51 0
-54 55 59 0
-55 44 0
-55 56 0
-56 42 0
-56 57 0
-57 38 0
-57 58 0
-58 -13 41 0
-58 -41 13 0
-59 -60 16 0
-59 60 63 0
-60 44 0
-60 61 0
-61 42 0
-61 62 0
-62 50 0
-62 58 0
-63 -64 16 0
-63 64 67 0
-64 44 0
-64 65 0
-65 37 0
-65 66 0
-66 -13 43 0
-66 -43 13 0
-67 -68 16 0
-67 68 70 0
-68 44 0
-68 69 0
-69 49 0
-69 66 0
-7 -8 0
-70 -71 73 0
-70 71 35 0
-71 44 0
-71 72 0
-72 57 0
-72 66 0
-73 -52 16 0
-73 52 13 0
-74 -75 14 0
-74 75 85 0
-75 -22 76 0
-75 22 47 0
-76 -30 16 0
-76 30 77 0
-77 -32 78 0
-77 32 47 0
-78 -35 13 0
-78 35 79 0
-79 -47 51 0
-79 47 80 0
-8 -10 9 0
-8 -9 10 0
-80 -55 51 0
-80 55 81 0
-81 -60 16 0
-81 60 82 0
-82 -64 13 0
-82 64 83 0
-83 -68 16 0
-83 68 84 0
-84 -71 51 0
-84 71 47 0
-85 -86 14 0
-85 86 97 0
-86 -22 87 0
-86 22 55 0
-87 -30 16 0
-87 30 88 0
-88 -32 89 0
-88 32 55 0
-89 -35 16 0
-89 35 90 0
-90 -47 91 0
-90 47 92 0
-91 -52 13 0
-91 52 16 0
-92 -55 51 0
-92 55 93 0
-93 -60 16 0
-93 60 94 0
-94 -64 16 0
-94 64 95 0
-95 -68 16 0
-95 68 96 0
-96 -71 51 0
-96 71 55 0
-97 -98 14 0
-97 98 108 0
-98 -22 99 0
-98 22 60 0
-99 -30 16 0
-99 30 100 0
1 -11 -142 0
1 -2 -11 0
1 0
1 2 -142 0
100 -101 -60 0
100 -32 -101 0
100 32 -60 0
101 -16 -102 0
101 -35 -16 0
101 35 -102 0
102 -47 -51 0
102 -51 -103 0
102 47 -103 0
103 -55 -91 0
103 -91 -104 0
103 55 -104 0
104 -16 -105 0
104 -60 -16 0
104 60 -105 0
105 -16 -106 0
105 -64 -16 0
105 64 -106 0
106 -16 -107 0
106 -68 -16 0
106 68 -107 0
107 -51 -60 0
107 -71 -51 0
107 71 -60 0
108 -109 -119 0
108 -119 -120 0
108 109 -120 0
109 -110 -64 0
109 -22 -110 0
109 22 -64 0
11 -12 -14 0
11 -14 -17 0
11 12 -17 0
110 -16 -111 0
110 -30 -16 0
110 30 -111 0
111 -112 -64 0
111 -32 -112 0
111 32 -64 0
112 -16 -113 0
112 -35 -16 0
112 35 -113 0
113 -47 -51 0
113 -51 -114 0
113 47 -114 0
114 -51 -115 0
114 -55 -51 0
114 55 -115 0
115 -13 -116 0
115 -60 -13 0
115 60 -116 0
116 -16 -117 0
116 -64 -16 0
116 64 -117 0
117 -16 -118 0
117 -68 -16 0
117 68 -118 0
118 -71 -91 0
118 -91 -64 0
118 71 -64 0
119 -15 -13 0
119 15 13 0
12 -9 -13 0
12 9 13 0
120 -121 -14 0
120 -14 -131 0
120 121 -131 0
121 -122 -68 0
121 -22 -122 0
121 22 -68 0
122 -16 -123 0
122 -30 -16 0
122 30 -123 0
123 -124 -68 0
123 -32 -124 0
123 32 -68 0
124 -16 -125 0
124 -35 -16 0
124 35 -125 0
125 -47 -73 0
125 -73 -126 0
125 47 -126 0
126 -51 -127 0
126 -55 -51 0
126 55 -127 0
127 -16 -128 0
127 -60 -16 0
127 60 -128 0
128 -16 -129 0
128 -64 -16 0
128 64 -129 0
129 -16 -130 0
129 -68 -16 0
129 68 -130 0
13 0
130 -51 -68 0
130 -71 -51 0
130 71 -68 0
131 -132 -14 0
131 -14 -142 0
131 132 -142 0
132 -133 -71 0
132 -22 -133 0
132 22 -71 0
133 -16 -134 0
133 -30 -16 0
133 30 -134 0
134 -135 -71 0
134 -32 -135 0
134 32 -71 0
135 -16 -136 0
135 -35 -16 0
135 35 -136 0
136 -47 -51 0
136 -51 -137 0
136 47 -137 0
137 -55 -73 0
137 -73 -138 0
137 55 -138 0
138 -16 -139 0
138 -60 -16 0
138 60 -139 0
139 -16 -140 0
139 -64 -16 0
139 64 -140 0
14 -15 -16 0
14 15 16 0
140 -13 -141 0
140 -68 -13 0
140 68 -141 0
141 -51 -71 0
141 -71 -51 0
141 71 -71 0
142 -15 -143 0
142 15 143 0
17 -18 -20 0
17 -20 -142 0
17 18 -142 0
18 -3 -19 0
19 -5 -13 0
19 5 13 0
2 -3 0
2 -7 0
20 -14 -74 0
20 -21 -14 0
20 21 -74 0
21 -22 -29 0
21 -29 -35 0
21 22 -35 0
22 -23 0
22 -26 0
23 24 0
24 -6 -25 0
24 6 25 0
26 27 0
27 -10 -28 0
27 10 28 0
29 -13 -31 0
29 -30 -13 0
29 30 -31 0
3 4 0
30 -10 -13 0
30 10 13 0
31 -32 -34 0
31 -34 -35 0
31 32 -35 0
32 -23 -33 0
33 -6 -13 0
33 6 13 0
34 -16 -46 0
34 -35 -16 0
34 35 -46 0
35 -36 -44 0
36 -37 -42 0
37 -38 -40 0
38 -39 -16 0
38 39 16 0
4 -5 -6 0
4 5 6 0
40 -41 -16 0
40 41 16 0
42 -43 -16 0
42 43 16 0
44 -45 -16 0
44 45 16 0
46 -47 -51 0
46 -51 -54 0
46 47 -54 0
47 -48 -44 0
48 -49 -42 0
49 -50 -40 0
50 -39 -13 0
50 39 13 0
51 -16 -16 0
51 -52 -16 0
51 52 -16 0
52 -53 -16 0
52 53 16 0
54 -51 -59 0
54 -55 -51 0
54 55 -59 0
55 -56 -44 0
56 -57 -42 0
57 -38 -58 0
58 -41 -13 0
58 41 13 0
59 -16 -63 0
59 -60 -16 0
59 60 -63 0
60 -61 -44 0
61 -62 -42 0
62 -50 -58 0
63 -16 -67 0
63 -64 -16 0
63 64 -67 0
64 -65 -44 0
65 -37 -66 0
66 -43 -13 0
66 43 13 0
67 -16 -70 0
67 -68 -16 0
67 68 -70 0
68 -69 -44 0
69 -49 -66 0
7 8 0
70 -71 -73 0
70 -73 -35 0
70 71 -35 0
71 -72 -44 0
72 -57 -66 0
73 -16 -13 0
73 -52 -16 0
73 52 -13 0
74 -14 -85 0
74 -75 -14 0
74 75 -85 0
75 -22 -76 0
75 -76 -47 0
75 22 -47 0
76 -16 -77 0
76 -30 -16 0
76 30 -77 0
77 -32 -78 0
77 -78 -47 0
77 32 -47 0
78 -13 -79 0
78 -35 -13 0
78 35 -79 0
79 -47 -51 0
79 -51 -80 0
79 47 -80 0
8 -9 -10 0
8 9 10 0
80 -51 -81 0
80 -55 -51 0
80 55 -81 0
81 -16 -82 0
81 -60 -16 0
81 60 -82 0
82 -13 -83 0
82 -64 -13 0
82 64 -83 0
83 -16 -84 0
83 -68 -16 0
83 68 -84 0
84 -51 -47 0
84 -71 -51 0
84 71 -47 0
85 -14 -97 0
85 -86 -14 0
85 86 -97 0
86 -22 -87 0
86 -87 -55 0
86 22 -55 0
87 -16 -88 0
87 -30 -16 0
87 30 -88 0
88 -32 -89 0
88 -89 -55 0
88 32 -55 0
89 -16 -90 0
89 -35 -16 0
89 35 -90 0
90 -47 -91 0
90 -91 -92 0
90 47 -92 0
91 -13 -16 0
91 -52 -13 0
91 52 -16 0
92 -51 -93 0
92 -55 -51 0
92 55 -93 0
93 -16 -94 0
93 -60 -16 0
93 60 -94 0
94 -16 -95 0
94 -64 -16 0
94 64 -95 0
95 -16 -96 0
95 -68 -16 0
95 68 -96 0
96 -51 -55 0
96 -71 -51 0
96 71 -55 0
97 -14 -108 0
97 -98 -14 0
97 98 -108 0
98 -22 -99 0
98 -99 -60 0
98 22 -60 0
99 -16 -100 0
99 -30 -16 0
99 30 -100 0
